50 10404

232
388
104
138
80
473
346
165
147
78
287
408
279
254
188
393
482
251
474
383
257
200
90
98
401
343
198
182
497
164
223
110
271
385
44
271
318
454
71
337
483
126
80
327
159
261
229
249
441
187
